wcsp 50 3 251 512409557603043100
3 3 3 3 3 3 3 3 3 3 3 3 3 3 3 3 3 3 3 3 3 3 3 3 3 3 3 3 3 3 3 3 3 3 3 3 3 3 3 3 3 3 3 3 3 3 3 3 3 3
2 43 49 0 9
0 0 0
0 1 2
0 2 3
1 0 3
1 1 3
1 2 0
2 0 0
2 1 3
2 2 0
2 17 29 0 9
0 0 0
0 1 0
0 2 0
1 0 1
1 1 3
1 2 3
2 0 1
2 1 1
2 2 0
2 5 21 0 9
0 0 0
0 1 2
0 2 3
1 0 2
1 1 0
1 2 1
2 0 0
2 1 1
2 2 0
2 25 32 0 9
0 0 1
0 1 0
0 2 3
1 0 1
1 1 0
1 2 3
2 0 0
2 1 1
2 2 0
2 18 29 0 9
0 0 0
0 1 0
0 2 0
1 0 3
1 1 2
1 2 0
2 0 3
2 1 1
2 2 2
2 8 44 0 9
0 0 3
0 1 2
0 2 0
1 0 2
1 1 0
1 2 0
2 0 0
2 1 2
2 2 3
2 26 39 0 9
0 0 3
0 1 3
0 2 3
1 0 1
1 1 0
1 2 2
2 0 0
2 1 0
2 2 0
2 20 40 0 9
0 0 0
0 1 0
0 2 0
1 0 0
1 1 1
1 2 3
2 0 1
2 1 1
2 2 1
2 14 43 0 9
0 0 0
0 1 1
0 2 1
1 0 0
1 1 2
1 2 0
2 0 2
2 1 3
2 2 0
2 2 14 0 9
0 0 1
0 1 1
0 2 0
1 0 0
1 1 0
1 2 0
2 0 1
2 1 1
2 2 2
2 28 36 0 9
0 0 1
0 1 1
0 2 1
1 0 0
1 1 0
1 2 2
2 0 0
2 1 0
2 2 3
2 19 21 0 9
0 0 0
0 1 1
0 2 0
1 0 1
1 1 3
1 2 3
2 0 0
2 1 2
2 2 0
2 4 6 0 9
0 0 3
0 1 2
0 2 0
1 0 0
1 1 2
1 2 2
2 0 0
2 1 0
2 2 3
2 11 34 0 9
0 0 1
0 1 1
0 2 0
1 0 1
1 1 2
1 2 0
2 0 1
2 1 0
2 2 0
2 34 38 0 9
0 0 2
0 1 1
0 2 3
1 0 0
1 1 0
1 2 0
2 0 0
2 1 2
2 2 1
2 3 11 0 9
0 0 1
0 1 1
0 2 2
1 0 1
1 1 0
1 2 0
2 0 0
2 1 0
2 2 1
2 3 44 0 9
0 0 0
0 1 3
0 2 1
1 0 0
1 1 0
1 2 0
2 0 1
2 1 3
2 2 2
2 17 49 0 9
0 0 0
0 1 0
0 2 3
1 0 2
1 1 0
1 2 0
2 0 3
2 1 1
2 2 2
2 14 22 0 9
0 0 0
0 1 3
0 2 0
1 0 2
1 1 0
1 2 1
2 0 3
2 1 2
2 2 0
2 24 39 0 9
0 0 0
0 1 1
0 2 0
1 0 3
1 1 2
1 2 2
2 0 0
2 1 3
2 2 0
2 25 30 0 9
0 0 2
0 1 3
0 2 0
1 0 2
1 1 0
1 2 2
2 0 0
2 1 0
2 2 2
2 1 13 0 9
0 0 0
0 1 2
0 2 1
1 0 1
1 1 0
1 2 0
2 0 2
2 1 0
2 2 2
2 29 44 0 9
0 0 0
0 1 3
0 2 0
1 0 3
1 1 2
1 2 1
2 0 3
2 1 0
2 2 0
2 33 41 0 9
0 0 1
0 1 0
0 2 1
1 0 1
1 1 0
1 2 0
2 0 1
2 1 0
2 2 3
2 27 31 0 9
0 0 0
0 1 2
0 2 3
1 0 1
1 1 0
1 2 1
2 0 0
2 1 0
2 2 2
2 9 20 0 9
0 0 0
0 1 2
0 2 2
1 0 0
1 1 0
1 2 2
2 0 1
2 1 0
2 2 3
2 18 38 0 9
0 0 0
0 1 0
0 2 1
1 0 3
1 1 3
1 2 0
2 0 1
2 1 0
2 2 2
2 0 38 0 9
0 0 0
0 1 0
0 2 3
1 0 1
1 1 1
1 2 0
2 0 1
2 1 2
2 2 0
2 6 32 0 9
0 0 3
0 1 1
0 2 1
1 0 2
1 1 0
1 2 0
2 0 1
2 1 0
2 2 0
2 2 33 0 9
0 0 0
0 1 0
0 2 3
1 0 1
1 1 2
1 2 0
2 0 0
2 1 2
2 2 3
2 20 23 0 9
0 0 3
0 1 0
0 2 2
1 0 3
1 1 0
1 2 0
2 0 0
2 1 1
2 2 3
2 14 34 0 9
0 0 0
0 1 0
0 2 1
1 0 2
1 1 2
1 2 2
2 0 3
2 1 0
2 2 0
2 30 35 0 9
0 0 1
0 1 0
0 2 0
1 0 0
1 1 1
1 2 1
2 0 2
2 1 3
2 2 0
2 30 38 0 9
0 0 1
0 1 2
0 2 0
1 0 1
1 1 3
1 2 0
2 0 0
2 1 0
2 2 3
2 18 22 0 9
0 0 2
0 1 0
0 2 0
1 0 1
1 1 1
1 2 0
2 0 0
2 1 3
2 2 2
2 25 33 0 9
0 0 0
0 1 0
0 2 3
1 0 0
1 1 3
1 2 0
2 0 2
2 1 3
2 2 1
2 7 45 0 9
0 0 0
0 1 2
0 2 0
1 0 0
1 1 3
1 2 1
2 0 0
2 1 3
2 2 2
2 42 43 0 9
0 0 0
0 1 1
0 2 0
1 0 3
1 1 3
1 2 2
2 0 2
2 1 0
2 2 0
2 8 22 0 9
0 0 3
0 1 0
0 2 0
1 0 1
1 1 0
1 2 3
2 0 1
2 1 0
2 2 2
2 35 47 0 9
0 0 1
0 1 2
0 2 0
1 0 1
1 1 0
1 2 2
2 0 0
2 1 2
2 2 0
2 7 36 0 9
0 0 0
0 1 0
0 2 0
1 0 3
1 1 1
1 2 3
2 0 0
2 1 2
2 2 1
2 5 37 0 9
0 0 0
0 1 1
0 2 3
1 0 1
1 1 0
1 2 3
2 0 0
2 1 2
2 2 0
2 20 45 0 9
0 0 2
0 1 3
0 2 0
1 0 1
1 1 0
1 2 0
2 0 2
2 1 2
2 2 0
2 25 46 0 9
0 0 2
0 1 3
0 2 1
1 0 1
1 1 0
1 2 0
2 0 1
2 1 0
2 2 0
2 10 27 0 9
0 0 0
0 1 3
0 2 1
1 0 0
1 1 0
1 2 1
2 0 0
2 1 1
2 2 1
2 20 41 0 9
0 0 2
0 1 1
0 2 2
1 0 2
1 1 3
1 2 0
2 0 0
2 1 0
2 2 0
2 7 33 0 9
0 0 2
0 1 0
0 2 0
1 0 1
1 1 1
1 2 1
2 0 0
2 1 2
2 2 0
2 17 23 0 9
0 0 2
0 1 0
0 2 2
1 0 0
1 1 2
1 2 2
2 0 0
2 1 1
2 2 0
2 11 19 0 9
0 0 0
0 1 2
0 2 1
1 0 1
1 1 0
1 2 2
2 0 2
2 1 0
2 2 0
2 0 13 0 9
0 0 0
0 1 3
0 2 0
1 0 0
1 1 2
1 2 0
2 0 2
2 1 3
2 2 2
2 32 40 0 9
0 0 0
0 1 2
0 2 3
1 0 0
1 1 1
1 2 0
2 0 0
2 1 2
2 2 2
2 0 49 0 9
0 0 3
0 1 1
0 2 0
1 0 0
1 1 1
1 2 0
2 0 0
2 1 2
2 2 3
2 29 43 0 9
0 0 3
0 1 0
0 2 2
1 0 0
1 1 1
1 2 0
2 0 0
2 1 2
2 2 2
2 32 34 0 9
0 0 0
0 1 0
0 2 1
1 0 1
1 1 0
1 2 1
2 0 2
2 1 0
2 2 2
2 29 39 0 9
0 0 0
0 1 0
0 2 0
1 0 1
1 1 3
1 2 3
2 0 0
2 1 3
2 2 2
2 30 31 0 9
0 0 3
0 1 1
0 2 0
1 0 2
1 1 2
1 2 1
2 0 0
2 1 0
2 2 0
2 20 33 0 9
0 0 2
0 1 2
0 2 3
1 0 2
1 1 0
1 2 0
2 0 3
2 1 0
2 2 0
2 1 17 0 9
0 0 3
0 1 0
0 2 0
1 0 3
1 1 3
1 2 0
2 0 2
2 1 3
2 2 0
2 4 11 0 9
0 0 1
0 1 3
0 2 0
1 0 0
1 1 0
1 2 3
2 0 2
2 1 2
2 2 0
2 11 23 0 9
0 0 3
0 1 0
0 2 0
1 0 3
1 1 0
1 2 1
2 0 1
2 1 1
2 2 0
2 25 28 0 9
0 0 2
0 1 3
0 2 0
1 0 0
1 1 1
1 2 1
2 0 0
2 1 1
2 2 0
2 4 18 0 9
0 0 1
0 1 0
0 2 0
1 0 0
1 1 2
1 2 1
2 0 2
2 1 0
2 2 2
2 2 25 0 9
0 0 0
0 1 2
0 2 0
1 0 1
1 1 3
1 2 1
2 0 0
2 1 2
2 2 0
2 2 7 0 9
0 0 0
0 1 0
0 2 0
1 0 2
1 1 1
1 2 0
2 0 1
2 1 1
2 2 3
2 31 38 0 9
0 0 0
0 1 3
0 2 0
1 0 0
1 1 3
1 2 2
2 0 2
2 1 2
2 2 0
2 8 26 0 9
0 0 0
0 1 0
0 2 1
1 0 0
1 1 3
1 2 2
2 0 3
2 1 0
2 2 2
2 17 40 0 9
0 0 1
0 1 3
0 2 0
1 0 2
1 1 0
1 2 1
2 0 0
2 1 1
2 2 0
2 41 47 0 9
0 0 0
0 1 0
0 2 0
1 0 3
1 1 2
1 2 3
2 0 2
2 1 1
2 2 0
2 34 35 0 9
0 0 0
0 1 0
0 2 0
1 0 3
1 1 0
1 2 1
2 0 3
2 1 1
2 2 3
2 16 21 0 9
0 0 2
0 1 3
0 2 3
1 0 0
1 1 2
1 2 0
2 0 0
2 1 2
2 2 0
2 0 1 0 9
0 0 0
0 1 2
0 2 1
1 0 0
1 1 2
1 2 2
2 0 3
2 1 0
2 2 0
2 10 18 0 9
0 0 0
0 1 0
0 2 0
1 0 2
1 1 1
1 2 0
2 0 3
2 1 3
2 2 1
2 10 26 0 9
0 0 0
0 1 0
0 2 1
1 0 2
1 1 0
1 2 3
2 0 1
2 1 0
2 2 3
2 16 18 0 9
0 0 0
0 1 0
0 2 3
1 0 0
1 1 3
1 2 2
2 0 3
2 1 0
2 2 3
2 8 15 0 9
0 0 3
0 1 3
0 2 0
1 0 0
1 1 3
1 2 0
2 0 0
2 1 1
2 2 3
2 38 49 0 9
0 0 1
0 1 0
0 2 2
1 0 0
1 1 0
1 2 1
2 0 3
2 1 0
2 2 3
2 4 10 0 9
0 0 0
0 1 2
0 2 3
1 0 0
1 1 0
1 2 2
2 0 1
2 1 3
2 2 0
2 34 40 0 9
0 0 3
0 1 3
0 2 0
1 0 3
1 1 0
1 2 0
2 0 2
2 1 0
2 2 1
2 1 34 0 9
0 0 0
0 1 1
0 2 0
1 0 0
1 1 0
1 2 3
2 0 1
2 1 1
2 2 3
2 20 31 0 9
0 0 1
0 1 0
0 2 2
1 0 1
1 1 0
1 2 2
2 0 1
2 1 0
2 2 0
2 9 29 0 9
0 0 0
0 1 3
0 2 3
1 0 0
1 1 2
1 2 1
2 0 0
2 1 2
2 2 0
2 14 18 0 9
0 0 0
0 1 2
0 2 3
1 0 2
1 1 3
1 2 1
2 0 0
2 1 0
2 2 0
2 3 48 0 9
0 0 0
0 1 3
0 2 0
1 0 0
1 1 1
1 2 3
2 0 1
2 1 0
2 2 1
2 1 37 0 9
0 0 2
0 1 0
0 2 0
1 0 3
1 1 3
1 2 2
2 0 0
2 1 2
2 2 0
2 18 40 0 9
0 0 0
0 1 3
0 2 0
1 0 1
1 1 0
1 2 2
2 0 1
2 1 3
2 2 0
2 15 38 0 9
0 0 1
0 1 2
0 2 0
1 0 1
1 1 0
1 2 0
2 0 1
2 1 2
2 2 0
2 23 46 0 9
0 0 2
0 1 0
0 2 1
1 0 2
1 1 0
1 2 0
2 0 0
2 1 2
2 2 1
2 9 17 0 9
0 0 1
0 1 3
0 2 0
1 0 0
1 1 2
1 2 0
2 0 2
2 1 2
2 2 0
2 7 16 0 9
0 0 1
0 1 0
0 2 0
1 0 1
1 1 3
1 2 0
2 0 0
2 1 3
2 2 3
2 44 49 0 9
0 0 2
0 1 3
0 2 0
1 0 2
1 1 1
1 2 0
2 0 1
2 1 0
2 2 0
2 39 41 0 9
0 0 1
0 1 3
0 2 3
1 0 0
1 1 3
1 2 3
2 0 0
2 1 0
2 2 0
2 12 15 0 9
0 0 0
0 1 2
0 2 2
1 0 0
1 1 0
1 2 0
2 0 1
2 1 3
2 2 3
2 12 47 0 9
0 0 0
0 1 2
0 2 0
1 0 3
1 1 2
1 2 1
2 0 0
2 1 0
2 2 2
2 10 49 0 9
0 0 0
0 1 3
0 2 0
1 0 0
1 1 0
1 2 3
2 0 1
2 1 1
2 2 3
2 12 30 0 9
0 0 0
0 1 1
0 2 3
1 0 1
1 1 0
1 2 2
2 0 0
2 1 0
2 2 1
2 37 38 0 9
0 0 0
0 1 1
0 2 0
1 0 0
1 1 3
1 2 3
2 0 1
2 1 0
2 2 2
2 13 25 0 9
0 0 0
0 1 1
0 2 2
1 0 1
1 1 3
1 2 0
2 0 3
2 1 0
2 2 0
2 21 33 0 9
0 0 0
0 1 2
0 2 3
1 0 1
1 1 0
1 2 2
2 0 0
2 1 1
2 2 0
2 4 42 0 9
0 0 0
0 1 1
0 2 3
1 0 0
1 1 0
1 2 1
2 0 0
2 1 1
2 2 3
2 1 7 0 9
0 0 0
0 1 0
0 2 1
1 0 3
1 1 2
1 2 0
2 0 2
2 1 0
2 2 3
2 18 46 0 9
0 0 2
0 1 3
0 2 0
1 0 2
1 1 2
1 2 2
2 0 0
2 1 0
2 2 0
2 4 25 0 9
0 0 2
0 1 0
0 2 2
1 0 0
1 1 3
1 2 0
2 0 0
2 1 3
2 2 3
2 10 13 0 9
0 0 1
0 1 1
0 2 0
1 0 3
1 1 2
1 2 0
2 0 2
2 1 0
2 2 0
2 17 41 0 9
0 0 3
0 1 2
0 2 0
1 0 1
1 1 0
1 2 3
2 0 0
2 1 3
2 2 0
2 14 15 0 9
0 0 0
0 1 0
0 2 1
1 0 1
1 1 0
1 2 2
2 0 1
2 1 0
2 2 2
2 14 39 0 9
0 0 2
0 1 0
0 2 2
1 0 0
1 1 0
1 2 3
2 0 3
2 1 0
2 2 2
2 9 49 0 9
0 0 3
0 1 1
0 2 3
1 0 0
1 1 3
1 2 0
2 0 3
2 1 0
2 2 0
2 24 25 0 9
0 0 3
0 1 0
0 2 2
1 0 0
1 1 0
1 2 3
2 0 1
2 1 0
2 2 3
2 27 37 0 9
0 0 0
0 1 0
0 2 2
1 0 3
1 1 3
1 2 0
2 0 3
2 1 0
2 2 2
2 8 36 0 9
0 0 2
0 1 0
0 2 2
1 0 0
1 1 2
1 2 2
2 0 0
2 1 3
2 2 0
2 28 43 0 9
0 0 2
0 1 0
0 2 2
1 0 2
1 1 0
1 2 2
2 0 1
2 1 0
2 2 0
2 29 42 0 9
0 0 0
0 1 0
0 2 2
1 0 1
1 1 0
1 2 1
2 0 1
2 1 1
2 2 0
2 7 39 0 9
0 0 3
0 1 2
0 2 2
1 0 0
1 1 0
1 2 3
2 0 0
2 1 0
2 2 1
2 12 26 0 9
0 0 0
0 1 2
0 2 2
1 0 1
1 1 0
1 2 2
2 0 0
2 1 1
2 2 0
2 18 23 0 9
0 0 3
0 1 0
0 2 1
1 0 0
1 1 0
1 2 0
2 0 2
2 1 3
2 2 3
2 23 25 0 9
0 0 2
0 1 0
0 2 0
1 0 0
1 1 3
1 2 1
2 0 1
2 1 0
2 2 3
2 18 36 0 9
0 0 2
0 1 0
0 2 1
1 0 0
1 1 2
1 2 0
2 0 0
2 1 2
2 2 2
2 1 42 0 9
0 0 3
0 1 0
0 2 1
1 0 3
1 1 3
1 2 1
2 0 0
2 1 0
2 2 0
2 21 43 0 9
0 0 1
0 1 3
0 2 0
1 0 1
1 1 0
1 2 2
2 0 0
2 1 0
2 2 3
2 9 39 0 9
0 0 2
0 1 0
0 2 2
1 0 0
1 1 2
1 2 2
2 0 0
2 1 3
2 2 0
2 40 45 0 9
0 0 1
0 1 0
0 2 0
1 0 1
1 1 3
1 2 2
2 0 0
2 1 0
2 2 2
2 7 15 0 9
0 0 0
0 1 2
0 2 0
1 0 0
1 1 2
1 2 0
2 0 3
2 1 2
2 2 1
2 4 41 0 9
0 0 3
0 1 0
0 2 3
1 0 3
1 1 0
1 2 1
2 0 0
2 1 0
2 2 3
2 13 35 0 9
0 0 0
0 1 2
0 2 1
1 0 0
1 1 0
1 2 0
2 0 1
2 1 3
2 2 3
2 1 30 0 9
0 0 0
0 1 0
0 2 0
1 0 2
1 1 0
1 2 2
2 0 1
2 1 1
2 2 3
2 3 8 0 9
0 0 0
0 1 1
0 2 0
1 0 0
1 1 3
1 2 0
2 0 1
2 1 2
2 2 2
2 5 27 0 9
0 0 2
0 1 1
0 2 2
1 0 0
1 1 0
1 2 0
2 0 0
2 1 3
2 2 3
2 14 37 0 9
0 0 2
0 1 0
0 2 0
1 0 1
1 1 1
1 2 3
2 0 0
2 1 2
2 2 0
2 20 24 0 9
0 0 1
0 1 0
0 2 2
1 0 0
1 1 0
1 2 1
2 0 2
2 1 0
2 2 3
2 5 45 0 9
0 0 1
0 1 0
0 2 2
1 0 3
1 1 3
1 2 0
2 0 0
2 1 2
2 2 0
2 3 29 0 9
0 0 0
0 1 1
0 2 3
1 0 0
1 1 0
1 2 0
2 0 1
2 1 1
2 2 2
2 20 35 0 9
0 0 2
0 1 0
0 2 0
1 0 2
1 1 0
1 2 3
2 0 3
2 1 2
2 2 0
2 2 26 0 9
0 0 0
0 1 1
0 2 0
1 0 0
1 1 2
1 2 1
2 0 0
2 1 1
2 2 1
2 47 48 0 9
0 0 3
0 1 1
0 2 0
1 0 2
1 1 0
1 2 2
2 0 0
2 1 1
2 2 0
2 32 35 0 9
0 0 1
0 1 0
0 2 2
1 0 1
1 1 0
1 2 3
2 0 2
2 1 0
2 2 0
2 34 46 0 9
0 0 0
0 1 2
0 2 1
1 0 3
1 1 0
1 2 0
2 0 1
2 1 2
2 2 0
2 27 49 0 9
0 0 0
0 1 0
0 2 0
1 0 3
1 1 2
1 2 1
2 0 2
2 1 0
2 2 2
2 2 31 0 9
0 0 0
0 1 3
0 2 2
1 0 0
1 1 0
1 2 3
2 0 1
2 1 3
2 2 0
2 25 42 0 9
0 0 0
0 1 2
0 2 1
1 0 3
1 1 3
1 2 0
2 0 0
2 1 0
2 2 3
2 41 45 0 9
0 0 2
0 1 2
0 2 2
1 0 2
1 1 0
1 2 0
2 0 0
2 1 0
2 2 1
2 12 24 0 9
0 0 0
0 1 2
0 2 2
1 0 1
1 1 2
1 2 0
2 0 2
2 1 0
2 2 0
2 1 48 0 9
0 0 0
0 1 1
0 2 0
1 0 0
1 1 2
1 2 2
2 0 3
2 1 3
2 2 0
2 15 41 0 9
0 0 0
0 1 3
0 2 2
1 0 0
1 1 0
1 2 3
2 0 0
2 1 3
2 2 3
2 26 48 0 9
0 0 2
0 1 2
0 2 0
1 0 3
1 1 3
1 2 0
2 0 0
2 1 1
2 2 0
2 11 13 0 9
0 0 3
0 1 0
0 2 2
1 0 0
1 1 1
1 2 1
2 0 0
2 1 0
2 2 1
2 2 13 0 9
0 0 0
0 1 3
0 2 1
1 0 1
1 1 1
1 2 0
2 0 1
2 1 0
2 2 0
2 42 44 0 9
0 0 0
0 1 0
0 2 1
1 0 2
1 1 3
1 2 0
2 0 0
2 1 2
2 2 3
2 3 41 0 9
0 0 3
0 1 1
0 2 2
1 0 0
1 1 0
1 2 1
2 0 0
2 1 2
2 2 0
2 6 45 0 9
0 0 1
0 1 0
0 2 0
1 0 2
1 1 1
1 2 2
2 0 3
2 1 0
2 2 0
2 2 45 0 9
0 0 3
0 1 3
0 2 3
1 0 0
1 1 0
1 2 0
2 0 3
2 1 3
2 2 0
2 16 28 0 9
0 0 0
0 1 3
0 2 3
1 0 3
1 1 0
1 2 0
2 0 3
2 1 3
2 2 0
2 36 43 0 9
0 0 2
0 1 0
0 2 2
1 0 1
1 1 1
1 2 0
2 0 0
2 1 2
2 2 0
2 23 41 0 9
0 0 3
0 1 0
0 2 0
1 0 3
1 1 0
1 2 1
2 0 3
2 1 1
2 2 0
2 3 33 0 9
0 0 0
0 1 0
0 2 0
1 0 1
1 1 3
1 2 1
2 0 2
2 1 2
2 2 0
2 3 5 0 9
0 0 1
0 1 2
0 2 2
1 0 0
1 1 1
1 2 3
2 0 0
2 1 0
2 2 0
2 17 48 0 9
0 0 0
0 1 0
0 2 2
1 0 0
1 1 1
1 2 0
2 0 2
2 1 2
2 2 3
2 1 46 0 9
0 0 2
0 1 0
0 2 2
1 0 1
1 1 0
1 2 3
2 0 0
2 1 3
2 2 0
2 8 42 0 9
0 0 1
0 1 2
0 2 0
1 0 2
1 1 3
1 2 0
2 0 0
2 1 0
2 2 1
2 11 35 0 9
0 0 1
0 1 2
0 2 2
1 0 0
1 1 1
1 2 0
2 0 0
2 1 0
2 2 2
2 31 34 0 9
0 0 1
0 1 0
0 2 3
1 0 2
1 1 2
1 2 0
2 0 2
2 1 0
2 2 0
2 12 32 0 9
0 0 1
0 1 0
0 2 1
1 0 0
1 1 2
1 2 3
2 0 0
2 1 0
2 2 1
2 16 31 0 9
0 0 0
0 1 0
0 2 2
1 0 1
1 1 3
1 2 0
2 0 2
2 1 1
2 2 0
2 7 13 0 9
0 0 2
0 1 3
0 2 0
1 0 0
1 1 3
1 2 3
2 0 0
2 1 0
2 2 1
2 2 4 0 9
0 0 0
0 1 3
0 2 0
1 0 1
1 1 0
1 2 3
2 0 0
2 1 2
2 2 1
2 28 38 0 9
0 0 0
0 1 3
0 2 0
1 0 2
1 1 2
1 2 0
2 0 2
2 1 0
2 2 1
2 15 22 0 9
0 0 2
0 1 0
0 2 2
1 0 0
1 1 0
1 2 2
2 0 1
2 1 3
2 2 0
2 33 44 0 9
0 0 3
0 1 0
0 2 2
1 0 2
1 1 2
1 2 0
2 0 0
2 1 2
2 2 0
2 30 36 0 9
0 0 0
0 1 3
0 2 0
1 0 0
1 1 2
1 2 0
2 0 1
2 1 2
2 2 2
2 0 7 0 9
0 0 0
0 1 0
0 2 0
1 0 2
1 1 3
1 2 1
2 0 2
2 1 0
2 2 1
2 23 48 0 9
0 0 0
0 1 2
0 2 3
1 0 2
1 1 3
1 2 0
2 0 1
2 1 0
2 2 0
2 18 30 0 9
0 0 0
0 1 0
0 2 2
1 0 3
1 1 1
1 2 2
2 0 1
2 1 0
2 2 0
2 0 34 0 9
0 0 1
0 1 0
0 2 0
1 0 2
1 1 2
1 2 1
2 0 3
2 1 0
2 2 0
2 25 45 0 9
0 0 2
0 1 1
0 2 1
1 0 2
1 1 0
1 2 0
2 0 0
2 1 1
2 2 0
2 14 21 0 9
0 0 0
0 1 0
0 2 2
1 0 3
1 1 1
1 2 0
2 0 3
2 1 3
2 2 0
2 17 34 0 9
0 0 0
0 1 2
0 2 0
1 0 2
1 1 0
1 2 3
2 0 2
2 1 0
2 2 1
2 19 20 0 9
0 0 0
0 1 0
0 2 3
1 0 2
1 1 1
1 2 0
2 0 0
2 1 1
2 2 3
2 24 32 0 9
0 0 2
0 1 0
0 2 0
1 0 3
1 1 2
1 2 0
2 0 3
2 1 3
2 2 0
2 21 40 0 9
0 0 3
0 1 2
0 2 0
1 0 1
1 1 1
1 2 0
2 0 0
2 1 0
2 2 1
2 10 11 0 9
0 0 2
0 1 0
0 2 2
1 0 1
1 1 3
1 2 0
2 0 0
2 1 0
2 2 3
2 4 31 0 9
0 0 0
0 1 0
0 2 2
1 0 2
1 1 0
1 2 0
2 0 2
2 1 1
2 2 1
2 31 32 0 9
0 0 0
0 1 1
0 2 2
1 0 2
1 1 2
1 2 0
2 0 0
2 1 0
2 2 1
2 22 26 0 9
0 0 0
0 1 1
0 2 2
1 0 0
1 1 3
1 2 0
2 0 0
2 1 2
2 2 3
2 30 49 0 9
0 0 2
0 1 3
0 2 3
1 0 0
1 1 3
1 2 0
2 0 0
2 1 0
2 2 1
2 14 38 0 9
0 0 2
0 1 0
0 2 0
1 0 2
1 1 1
1 2 0
2 0 1
2 1 1
2 2 0
2 29 33 0 9
0 0 2
0 1 0
0 2 0
1 0 2
1 1 2
1 2 0
2 0 3
2 1 0
2 2 2
2 1 35 0 9
0 0 0
0 1 0
0 2 2
1 0 1
1 1 0
1 2 0
2 0 3
2 1 3
2 2 1
2 23 32 0 9
0 0 2
0 1 0
0 2 1
1 0 3
1 1 2
1 2 0
2 0 3
2 1 0
2 2 0
2 14 46 0 9
0 0 3
0 1 2
0 2 2
1 0 0
1 1 2
1 2 0
2 0 0
2 1 2
2 2 0
2 34 37 0 9
0 0 2
0 1 2
0 2 1
1 0 0
1 1 0
1 2 2
2 0 0
2 1 0
2 2 2
2 3 20 0 9
0 0 0
0 1 2
0 2 3
1 0 3
1 1 2
1 2 0
2 0 0
2 1 0
2 2 2
2 36 42 0 9
0 0 1
0 1 3
0 2 2
1 0 0
1 1 0
1 2 3
2 0 0
2 1 3
2 2 0
2 13 24 0 9
0 0 0
0 1 3
0 2 0
1 0 2
1 1 0
1 2 2
2 0 3
2 1 0
2 2 3
2 9 38 0 9
0 0 2
0 1 3
0 2 0
1 0 0
1 1 3
1 2 2
2 0 3
2 1 0
2 2 0
2 36 46 0 9
0 0 3
0 1 3
0 2 3
1 0 0
1 1 0
1 2 0
2 0 1
2 1 3
2 2 0
2 9 11 0 9
0 0 0
0 1 0
0 2 2
1 0 2
1 1 0
1 2 1
2 0 1
2 1 0
2 2 3
2 4 16 0 9
0 0 3
0 1 3
0 2 0
1 0 0
1 1 0
1 2 2
2 0 0
2 1 3
2 2 3
2 44 46 0 9
0 0 2
0 1 1
0 2 0
1 0 3
1 1 0
1 2 0
2 0 0
2 1 2
2 2 1
2 42 47 0 9
0 0 0
0 1 0
0 2 0
1 0 3
1 1 0
1 2 2
2 0 3
2 1 3
2 2 2
2 1 41 0 9
0 0 2
0 1 1
0 2 1
1 0 0
1 1 0
1 2 2
2 0 0
2 1 3
2 2 0
2 29 48 0 9
0 0 0
0 1 1
0 2 2
1 0 1
1 1 3
1 2 0
2 0 1
2 1 0
2 2 0
1 0 512409557603043100 3
0 0
1 1
2 0
1 1 512409557603043100 3
0 0
1 2
2 1
1 2 512409557603043100 3
0 0
1 2
2 1
1 3 512409557603043100 3
0 1
1 0
2 1
1 4 512409557603043100 3
0 0
1 1
2 0
1 5 512409557603043100 3
0 2
1 0
2 1
1 6 512409557603043100 3
0 2
1 0
2 0
1 7 512409557603043100 3
0 0
1 3
2 0
1 8 512409557603043100 3
0 3
1 0
2 3
1 9 512409557603043100 3
0 3
1 1
2 0
1 10 512409557603043100 3
0 2
1 2
2 0
1 11 512409557603043100 3
0 0
1 1
2 0
1 12 512409557603043100 3
0 2
1 2
2 0
1 13 512409557603043100 3
0 0
1 3
2 2
1 14 512409557603043100 3
0 1
1 1
2 0
1 15 512409557603043100 3
0 0
1 2
2 3
1 16 512409557603043100 3
0 2
1 2
2 0
1 17 512409557603043100 3
0 0
1 2
2 2
1 18 512409557603043100 3
0 1
1 0
2 0
1 19 512409557603043100 3
0 1
1 0
2 2
1 20 512409557603043100 3
0 0
1 0
2 0
1 21 512409557603043100 3
0 3
1 0
2 1
1 22 512409557603043100 3
0 2
1 0
2 3
1 23 512409557603043100 3
0 1
1 0
2 0
1 24 512409557603043100 3
0 1
1 1
2 0
1 25 512409557603043100 3
0 3
1 0
2 0
1 26 512409557603043100 3
0 2
1 0
2 1
1 27 512409557603043100 3
0 1
1 2
2 0
1 28 512409557603043100 3
0 3
1 0
2 0
1 29 512409557603043100 3
0 0
1 1
2 2
1 30 512409557603043100 3
0 1
1 3
2 0
1 31 512409557603043100 3
0 1
1 0
2 0
1 32 512409557603043100 3
0 0
1 0
2 1
1 33 512409557603043100 3
0 2
1 2
2 0
1 34 512409557603043100 3
0 3
1 0
2 1
1 35 512409557603043100 3
0 1
1 0
2 2
1 36 512409557603043100 3
0 1
1 0
2 1
1 37 512409557603043100 3
0 0
1 2
2 1
1 38 512409557603043100 3
0 0
1 1
2 1
1 39 512409557603043100 3
0 0
1 2
2 1
1 40 512409557603043100 3
0 0
1 3
2 1
1 41 512409557603043100 3
0 0
1 0
2 3
1 42 512409557603043100 3
0 0
1 1
2 1
1 43 512409557603043100 3
0 0
1 1
2 0
1 44 512409557603043100 3
0 0
1 2
2 1
1 45 512409557603043100 3
0 2
1 0
2 2
1 46 512409557603043100 3
0 0
1 1
2 0
1 47 512409557603043100 3
0 2
1 0
2 3
1 48 512409557603043100 3
0 3
1 0
2 0
1 49 512409557603043100 3
0 1
1 1
2 0
0 22 0
